
Gurobi 11.0.3 (linux64) logging started Thu Nov 21 23:06:56 2024

Set parameter LogFile to value "/home/yihong/Coding/OR_SUC/SUC_results_bigM100000_thread4/case24_ieee_rts_theta0.5_epsilon0.05_gurobi_seed1180000_num_gen100_N_WDR100_load_scaling_factor1_exact_T8quadra_cost.txt"
Set parameter TimeLimit to value 3600
Gurobi Optimizer version 11.0.3 build v11.0.3rc0 (linux64 - "Ubuntu 20.04.6 LTS")

CPU model: AMD EPYC 7532 32-Core Processor, instruction set [SSE2|AVX|AVX2]
Thread count: 64 physical cores, 128 logical processors, using up to 4 threads

Optimize a model with 18955 rows, 10121 columns and 440954 nonzeros
Model fingerprint: 0x3308e5f2
Model has 800 quadratic constraints
Variable types: 9221 continuous, 900 integer (900 binary)
Coefficient statistics:
  Matrix range     [3e-04, 1e+05]
  QMatrix range    [2e-03, 8e-03]
  QLMatrix range   [4e-01, 6e+01]
  Objective range  [1e+00, 1e+00]
  Bounds range     [1e+00, 1e+00]
  RHS range        [1e+00, 1e+05]
Presolve removed 15638 rows and 4460 columns
Presolve time: 0.13s
Presolved: 3317 rows, 5661 columns, 18700 nonzeros
Presolved model has 800 quadratic constraint(s)
Variable types: 4806 continuous, 855 integer (855 binary)

Root relaxation: objective 1.533399e+04, 2632 iterations, 0.04 seconds (0.06 work units)

    Nodes    |    Current Node    |     Objective Bounds      |     Work
 Expl Unexpl |  Obj  Depth IntInf | Incumbent    BestBd   Gap | It/Node Time

     0     0 15333.9899    0   13          - 15333.9899      -     -    0s
     0     0 92582.8775    0  355          - 92582.8775      -     -    0s
     0     0 92776.9860    0  349          - 92776.9860      -     -    0s
     0     0 180940.012    0  115          - 180940.012      -     -    0s
     0     0 180948.780    0  117          - 180948.780      -     -    0s
     0     0 181046.448    0   83          - 181046.448      -     -    0s
     0     0 181058.322    0   83          - 181058.322      -     -    0s
     0     0 181058.322    0   82          - 181058.322      -     -    0s
     0     0 181058.322    0   82          - 181058.322      -     -    0s
     0     2 181058.322    0   82          - 181058.322      -     -    1s
H  177   200                    181074.32288 181061.124  0.01%   7.0    1s
*  177   200              60    181074.32288 181061.124  0.01%   7.0    1s

Cutting planes:
  Gomory: 57
  Implied bound: 221
  MIR: 73
  Flow cover: 159
  RLT: 1
  Relax-and-lift: 2

Explored 203 nodes (8375 simplex iterations) in 1.36 seconds (1.37 work units)
Thread count was 4 (of 128 available processors)

Solution count 2: 181074 181074 

Optimal solution found (tolerance 1.00e-03)
Warning: max constraint violation (2.2770e-07) exceeds tolerance
Best objective 1.810743228744e+05, best bound 1.810611236550e+05, gap 0.0073%
